&BANDS
outdir = './work'
prefix = 'Al2SO'
filband = 'Al2SO.bands'
/
