&BANDS
outdir = './work'
prefix = 'Al2SO'
filband = 'AB.bands'
/
