&CONTROL
calculation = 'bands'
prefix = 'Al2O2'
outdir = './work'
pseudo_dir = '/home/mainadmin/research/danu/pseudo'
/

&SYSTEM
ibrav = 0
nat = 8
ntyp = 2
ecutwfc=60
ecutrho=240
nbnd = 70
/

&ELECTRONS
conv_thr = 1d-8
mixing_beta = 0.5
/

ATOMIC_SPECIES
Al 26.981 Al.pbe-n-kjpaw_psl.1.0.0.UPF
O  15.999 O.pbe-n-kjpaw_psl.1.0.0.UPF

CELL_PARAMETERS	(angstrom)		
	2.810326924	1.624725027	0.000000000
	2.810326924    -1.624725027	0.000000000
	0.000000000	0.000000000    12.637556862

ATOMIC_POSITIONS	(crystal)					
O	0.3333333333	0.3333333333	0.000000000000000	0	0	0
Al	0.000000000	0.000000000	0.043268678778453	0	0	1
Al	0.000000000	0.000000000	0.249977950962261	0	0	1
O	0.3333333333	0.3333333333	0.293776848775352	0	0	1
O	0.6666666667	0.6666666667	0.500397117393947	0	0	1
Al	0.3333333333	0.3333333333	0.542845953515528	0	0	1
Al	0.3333333333	0.3333333333	0.749727223479353	0	0	1
O	0.6666666667	0.6666666667	0.793379731381406	0	0	1

K_POINTS {crystal_b}
4
0.00000 0.00000 0.00000 30 !G
0.66644 0.33356 0.00000 30 !K
0.50000 0.50000 0.00000 30 !M
0.00000 0.00000 0.00000 1  !G
