&BANDS
outdir = './work'
prefix = 'Al2O2'
filband = 'AB.bands'
/
