&BANDS
outdir = './work'
prefix = 'Al2O2'
filband = 'AC.bands'
/
