&BANDS
outdir = './work'
prefix = 'Al2O2'
filband = 'Al2O2.bands'
/
