&CONTROL
calculation = 'scf'
restart_mode = 'from_scratch'
prefix = 'Al2SO'
outdir = './work'
pseudo_dir = '/home/mainadmin/research/danu/pseudo' 
/

&SYSTEM
ibrav = 0
nat = 8
ntyp = 3
nbnd = 72 
ecutwfc=60
ecutrho=240
/

&ELECTRONS
conv_thr = 1d-8
mixing_beta = 0.5
/

ATOMIC_SPECIES
Al 26.981 Al.pbe-n-kjpaw_psl.1.0.0.UPF  
O  15.999 O.pbe-n-kjpaw_psl.1.0.0.UPF
S  32.065 S.pbe-n-kjpaw_psl.1.0.0.UPF 

CELL_PARAMETERS (angstrom)
   2.815942990   1.625893807   0.000675923
   2.815942990  -1.625893807   0.000675923
   0.002258410  -0.000000000  15.204154319

ATOMIC_POSITIONS (crystal)
O             0.3333333333        0.3333333333        0.0000000000    0   0   0
Al            0.0000011921        0.0000011921        0.0321800657    0   0   1
Al            0.0000010259        0.0000010259        0.2043994788    0   0   1
S             0.3333256815        0.3333256815        0.2856845031    0   0   1
O             0.6666684739        0.6666684739        0.4906076118    0   0   1
Al            0.3333302950        0.3333302950        0.5224914965    0   0   1
Al            0.3333374720        0.3333374720        0.6946636495    0   0   1
S             0.6666641271        0.6666641271        0.7760565326    0   0   1

K_POINTS {automatic}
13 13 3  0 0 0
