&CONTROL
calculation = 'nscf'
restart_mode ='from_scratch'
verbosity ='high'
prefix = 'Al2S2'
outdir = './work'
pseudo_dir = '/home/mainadmin/research/danu/pseudo'
/

&SYSTEM
ibrav = 0
nat = 4
ntyp = 2
occupations = 'tetrahedra'
ecutwfc=60
ecutrho=240
nbnd = 20
nosym=.TRUE.
/

&ELECTRONS
conv_thr = 1d-8
mixing_beta = 0.5
/

ATOMIC_SPECIES
Al 26.981 Al.pbe-n-kjpaw_psl.1.0.0.UPF
S  32.065 S.pbe-n-kjpaw_psl.1.0.0.UPF

CELL_PARAMETERS (angstrom)
   3.098598606   1.793190429   0.000000000
   3.098598606  -1.793190429   0.000000000
   0.000000000   0.000000000  25.000000000

ATOMIC_POSITIONS (crystal)
S             0.6667063054        0.6667063054        0.4066751399
Al            0.3333341792        0.3333341792        0.4493792798
Al            0.3332093664        0.3332093664        0.5532337751
S             0.6667501490        0.6667501490        0.5959428051

K_POINTS {automatic}
52 52 1  0 0 0
