&CONTROL
calculation = 'bands'
prefix = 'Al2SO'
outdir = './work'
pseudo_dir = '/home/mainadmin/research/danu/pseudo'
/

&SYSTEM
ibrav = 0
nat = 8
ntyp = 3
ecutwfc=60
ecutrho=240
input_dft='vdw-df2-b86r'
nbnd = 25
/

&ELECTRONS
conv_thr = 1d-8
mixing_beta = 0.5
/

ATOMIC_SPECIES
Al 26.981 Al.pbe-n-kjpaw_psl.1.0.0.UPF  
O  15.999 O.pbe-n-kjpaw_psl.1.0.0.UPF
S  32.065 S.pbe-n-kjpaw_psl.1.0.0.UPF 

CELL_PARAMETERS (angstrom)
   2.842917033   1.641242469   0.000008975
   2.842917033  -1.641242469   0.000008975
   0.000032210  -0.000000000  13.387443237

ATOMIC_POSITIONS (crystal)
O             0.6666666667        0.6666666667        0.0000000000    0   0   0
Al            0.3333332270        0.3333332270        0.0217778854    0   0   1
Al            0.3333336254        0.3333336254        0.2189812931    0   0   1
S             0.6666670603        0.6666670603        0.3132632773    0   0   1
O             0.3333328676        0.3333328676        0.5000119617    0   0   1
Al            0.6666667617        0.6666667617        0.5217892915    0   0   1
Al            0.6666669489        0.6666669489        0.7190231077    0   0   1
S             0.3333333879        0.3333333879        0.8132383290    0   0   1

K_POINTS {crystal_b}
4
0.00000 0.00000 0.00000 30 !G
0.66668 0.33332 0.00000 30 !K
0.50000 0.50000 0.00000 30 !M
0.00000 0.00000 0.00000 1  !G
