&DOS
outdir = './work'
prefix = 'Al2SO'
fildos='AB.dos.dat'
emin=-15
emax=15
/

