&CONTROL
calculation = 'nscf'
restart_mode='from_scratch'
prefix = 'Al2SO'
outdir = './work'
verbosity='high'
pseudo_dir = '/home/mainadmin/research/danu/pseudo'
/

&SYSTEM
ibrav = 0
nat = 8
ntyp = 3
occupations='tetrahedra'
ecutwfc=60
ecutrho=240
input_dft='vdw-df2-b86r'
nbnd =25
nosym=.TRUE.
/

&ELECTRONS
conv_thr = 1d-8
mixing_beta = 0.5
/

ATOMIC_SPECIES
Al 26.981 Al.pbe-n-kjpaw_psl.1.0.0.UPF  
O  15.999 O.pbe-n-kjpaw_psl.1.0.0.UPF
S  32.065 S.pbe-n-kjpaw_psl.1.0.0.UPF 

CELL_PARAMETERS (angstrom)
  2.821645945    1.628379697     0.00000000
  2.821645945   -1.628379697     0.00000000
  0.000000000    0.000000000    13.82429544

ATOMIC_POSITIONS        (crystal)
O       0.33333333      0.33333333      0.00000000000000        0       0       0
Al      0.00000000      0.00000000      0.03076838983144        0       0       1
Al      0.00000000      0.00000000      0.22010294335345        0       0       1
S       0.33333333      0.33333333      0.30998686533785        0       0       1
O       0.66666667      0.66666667      0.50013091737620        0       0       1
Al      0.33333333      0.33333333      0.53000576340514        0       0       1
Al      0.33333333      0.33333333      0.71945675581546        0       0       1
S       0.66666667      0.66666667      0.80985594796165        0       0       1

K_POINTS {automatic}
52 52 3  0 0 0
