&CONTROL
calculation = 'bands'
prefix = 'Al2S2'
outdir = './work'
pseudo_dir = '/home/mainadmin/research/danu/pseudo'
/

&SYSTEM
ibrav = 0
nat = 8
ntyp = 2
ecutwfc=60
ecutrho=240
input_dft='vdw-df2-b86r'
nbnd = 70
/

&ELECTRONS
conv_thr = 1d-8
mixing_beta = 0.5
/

ATOMIC_SPECIES
Al 26.981 Al.pbe-n-kjpaw_psl.1.0.0.UPF  
S  32.065 S.pbe-n-kjpaw_psl.1.0.0.UPF 

CELL_PARAMETERS (angstrom)
   2.810326924   1.624725027   0.000000000
   2.810326924  -1.624725027   0.000000000
   0.000000000   0.000000000  16.452967458

ATOMIC_POSITIONS (crystal)
S             0.3333333333        0.3333333333        0.0000000000    0   0   0
Al            0.0000000000        0.0000000000        0.0743782740    0   0   1
Al            0.0000000000        0.0000000000        0.2324806460    0   0   1
S             0.3333333333        0.3333333333        0.3068542257    0   0   1
S             0.6666666667        0.6666666667        0.5000550775    0   0   1
Al            0.3333333333        0.3333333333        0.5744558207    0   0   1
Al            0.3333333333        0.3333333333        0.7325082280    0   0   1
S             0.6666666667        0.6666666667        0.8069017476    0   0   1

K_POINTS {crystal_b}
4
0.00000	0.00000	0.00000 30 !G
0.66644	0.33356	0.00000 30 !K
0.50000	0.50000	0.00000 30 !M
0.00000	0.00000	0.00000 1  !G
