&BANDS
outdir = './work'
prefix = 'Al2S2'
filband = 'AC.bands'
/
