&BANDS
outdir = './work'
prefix = 'Al2SO'
filband = 'AA.bands'
/
