&CONTROL
calculation = 'nscf'
prefix = 'Al2S2'
outdir = './work'
pseudo_dir = '/home/mainadmin/research/danu/pseudo'
verbosity ='high'
/

&SYSTEM
ibrav = 0
nat = 8
ntyp = 2
ecutwfc=60
ecutrho=240
input_dft='vdw-df2-b86r'
nbnd = 70
occupations ='tetrahedra'
nosym=.TRUE.
/

&ELECTRONS
conv_thr = 1d-8
mixing_beta = 0.5
/

ATOMIC_SPECIES
Al 26.981 Al.pbe-n-kjpaw_psl.1.0.0.UPF
S  32.065 S.pbe-n-kjpaw_psl.1.0.0.UPF

CELL_PARAMETERS (angstrom)
   2.810326924   1.624725027   0.000000000
   2.810326924  -1.624725027   0.000000000
   0.000000000   0.000000000  16.454592694

ATOMIC_POSITIONS (crystal)
S             0.6666666667        0.6666666667        0.0000000000    0   0   0
Al            0.3333333333        0.3333333333        0.0744038500    0   0   1
Al            0.3333333333        0.3333333333        0.2324739603    0   0   1
S             0.6666666667        0.6666666667        0.3068668363    0   0   1
S             0.3333333333        0.3333333333        0.5001826997    0   0   1
Al            0.6666666667        0.6666666667        0.5745752652    0   0   1
Al            0.6666666667        0.6666666667        0.7326345918    0   0   1
S             0.3333333333        0.3333333333        0.8070185280    0   0   1

K_POINTS {automatic}
52 52 3  0 0 0
