&CONTROL
calculation = 'nscf'
restart_mode = 'from_scratch'
prefix = 'Al2SO'
outdir = './work'
verbosity = 'high'
pseudo_dir = '/home/mainadmin/research/danu/pseudo' 
/

&SYSTEM
ibrav = 0
nat = 8
ntyp = 3
occupations = 'tetrahedra'
nbnd = 72 
ecutwfc=60
ecutrho=240
nosym = .TRUE.
/

&ELECTRONS
conv_thr = 1d-8
mixing_beta = 0.5
/

ATOMIC_SPECIES
Al 26.981 Al.pbe-n-kjpaw_psl.1.0.0.UPF  
O  15.999 O.pbe-n-kjpaw_psl.1.0.0.UPF
S  32.065 S.pbe-n-kjpaw_psl.1.0.0.UPF 

CELL_PARAMETERS (angstrom)
   2.810807022   1.622659899   0.000099030
   2.810807022  -1.622659899   0.000099030
   0.000578655  -0.000000000  16.538303793

ATOMIC_POSITIONS (crystal)
O             0.6666666667        0.6666666667        0.0000000000    0   0   0
Al            0.3333331576        0.3333331576        0.0312615756    0   0   1
Al            0.3333332491        0.3333332491        0.1896537036    0   0   1
S             0.6666666503        0.6666666503        0.2643720069    0   0   1
O             0.6666667131        0.6666667131        0.5018836138    0   0   1
Al            0.3333333102        0.3333333102        0.5329598440    0   0   1
Al            0.3333332978        0.3333332978        0.6908265136    0   0   1
S             0.6666666696        0.6666666696        0.7654153300    0   0   1

K_POINTS {automatic}
48 48 3  0 0 0
