&BANDS
outdir = './work'
prefix = 'Al2S2'
filband = 'Al2S2.bands'
/
