&BANDS
outdir = './work'
prefix = 'Al2SO'
filband = 'AC.bands'
/
