&CONTROL
calculation = 'bands'
restart_mode = 'from_scratch'
prefix = 'Al2SO'
outdir = './work'
pseudo_dir = '/home/mainadmin/research/danu/pseudo' 
/

&SYSTEM
ibrav = 0
nat = 8
ntyp = 3
nbnd = 72
ecutwfc=60
ecutrho=240
/

&ELECTRONS
conv_thr = 1d-8
mixing_beta = 0.5
/

ATOMIC_SPECIES
Al 26.981 Al.pbe-n-kjpaw_psl.1.0.0.UPF  
O  15.999 O.pbe-n-kjpaw_psl.1.0.0.UPF
S  32.065 S.pbe-n-kjpaw_psl.1.0.0.UPF 

CELL_PARAMETERS (angstrom)
   2.826762577   1.631624264   0.000015192
   2.826762577  -1.631624264   0.000015192
   0.000364256  -0.000000000  14.316020119

ATOMIC_POSITIONS (crystal)
O             0.6666666667        0.6666666667        0.0000000000    0   0   0
Al            0.3333322290        0.3333322290        0.0299351270    0   0   1
Al            0.3333332261        0.3333332261        0.2132615341    0   0   1
S             0.6666670488        0.6666670488        0.3000422334    0   0   1
O             0.3333336317        0.3333336317        0.4999431321    0   0   1
Al            0.6666664091        0.6666664091        0.5299056571    0   0   1
Al            0.6666664046        0.6666664046        0.7132653291    0   0   1
S             0.3333337099        0.3333337099        0.8001041119    0   0   1

K_POINTS {crystal_b}
4
0.00000 0.00000  0.00000 30 !G
0.33329 0.66671  0.00000 30 !K
0.50000 0.50000  0.00000 30 !M
0.00000 0.00000  0.00000 1  !G
