&BANDS
outdir = './work'
prefix = 'Al2O2'
filband = 'AA.bands'
/
