&CONTROL
calculation = 'scf'
prefix = 'Al2O2'
outdir = './work'
pseudo_dir = '/home/mainadmin/research/danu/pseudo'
/

&SYSTEM
ibrav = 0
nat = 8
ntyp = 2
ecutwfc=60
ecutrho=240
input_dft='vdw-df2-b86r'
nbnd = 70 
/

&ELECTRONS
conv_thr = 1d-8
mixing_beta = 0.5
/

ATOMIC_SPECIES
Al 26.981 Al.pbe-n-kjpaw_psl.1.0.0.UPF
O  15.999 O.pbe-n-kjpaw_psl.1.0.0.UPF

CELL_PARAMETERS	(angstrom)		
	2.810326924	1.624725027	0.000000000
	2.810326924	-1.624725027	0.000000000
	0.000000000	0.000000000    15.708088290

ATOMIC_POSITIONS	(crystal)					
O	0.6666666667	0.6666666667	0.000000000000000	0	0	0
Al	0.3333333333	0.3333333333	0.035323829425306	0	0	1
Al	0.3333333333	0.3333333333	0.201347220820706	0	0	1
O	0.6666666667	0.6666666667	0.236709745523143	0	0	1
O	0.6666666667	0.6666666667	0.499969816525329	0	0	1
Al	0.3333333333	0.3333333333	0.535184436026154	0	0	1
Al	0.3333333333	0.3333333333	0.701392997381226	0	0	1
O	0.6666666667	0.6666666667	0.736739928997814	0	0	1

K_POINTS {automatic}
13 13 3  0 0 0
